p cnf 82 413
1 2 3 0
4 5 6 0
7 8 9 0
10 11 12 0
13 14 15 16 17 0
18 19 20 21 22 0
23 24 25 26 0
27 28 29 30 31 32 0
33 34 35 0
36 37 38 39 40 0
41 42 43 44 0
45 46 0
47 48 49 50 0
51 52 53 54 55 56 0
61 62 63 64 65 66 0
72 73 74 0
75 76 77 78 79 0
80 81 82 0
-4 -10 0
-4 -13 0
-4 -23 0
-4 -27 0
-4 -36 0
-4 -47 0
-4 -51 0
-4 -57 0
-4 -61 0
-4 -67 0
-10 -13 0
-10 -23 0
-10 -27 0
-10 -36 0
-10 -47 0
-10 -51 0
-10 -57 0
-10 -61 0
-10 -67 0
-13 -23 0
-13 -27 0
-13 -36 0
-13 -47 0
-13 -51 0
-13 -57 0
-13 -61 0
-13 -67 0
-23 -27 0
-23 -36 0
-23 -47 0
-23 -51 0
-23 -57 0
-23 -61 0
-23 -67 0
-27 -36 0
-27 -47 0
-27 -51 0
-27 -57 0
-27 -61 0
-27 -67 0
-36 -47 0
-36 -51 0
-36 -57 0
-36 -61 0
-36 -67 0
-47 -51 0
-47 -57 0
-47 -61 0
-47 -67 0
-51 -57 0
-51 -61 0
-51 -67 0
-57 -61 0
-57 -67 0
-61 -67 0
-1 -7 0
-1 -14 0
-1 -18 0
-1 -24 0
-1 -28 0
-1 -33 0
-1 -37 0
-1 -41 0
-1 -45 0
-1 -48 0
-1 -52 0
-1 -62 0
-1 -75 0
-7 -14 0
-7 -18 0
-7 -24 0
-7 -28 0
-7 -33 0
-7 -37 0
-7 -41 0
-7 -45 0
-7 -48 0
-7 -52 0
-7 -62 0
-7 -75 0
-14 -18 0
-14 -24 0
-14 -28 0
-14 -33 0
-14 -37 0
-14 -41 0
-14 -45 0
-14 -48 0
-14 -52 0
-14 -62 0
-14 -75 0
-18 -24 0
-18 -28 0
-18 -33 0
-18 -37 0
-18 -41 0
-18 -45 0
-18 -48 0
-18 -52 0
-18 -62 0
-18 -75 0
-24 -28 0
-24 -33 0
-24 -37 0
-24 -41 0
-24 -45 0
-24 -48 0
-24 -52 0
-24 -62 0
-24 -75 0
-28 -33 0
-28 -37 0
-28 -41 0
-28 -45 0
-28 -48 0
-28 -52 0
-28 -62 0
-28 -75 0
-33 -37 0
-33 -41 0
-33 -45 0
-33 -48 0
-33 -52 0
-33 -62 0
-33 -75 0
-37 -41 0
-37 -45 0
-37 -48 0
-37 -52 0
-37 -62 0
-37 -75 0
-41 -45 0
-41 -48 0
-41 -52 0
-41 -62 0
-41 -75 0
-45 -48 0
-45 -52 0
-45 -62 0
-45 -75 0
-48 -52 0
-48 -62 0
-48 -75 0
-52 -62 0
-52 -75 0
-62 -75 0
-8 -19 0
-8 -29 0
-8 -34 0
-8 -42 0
-8 -53 0
-8 -63 0
-8 -68 0
-8 -76 0
-8 -80 0
-19 -29 0
-19 -34 0
-19 -42 0
-19 -53 0
-19 -63 0
-19 -68 0
-19 -76 0
-19 -80 0
-29 -34 0
-29 -42 0
-29 -53 0
-29 -63 0
-29 -68 0
-29 -76 0
-29 -80 0
-34 -42 0
-34 -53 0
-34 -63 0
-34 -68 0
-34 -76 0
-34 -80 0
-42 -53 0
-42 -63 0
-42 -68 0
-42 -76 0
-42 -80 0
-53 -63 0
-53 -68 0
-53 -76 0
-53 -80 0
-63 -68 0
-63 -76 0
-63 -80 0
-68 -76 0
-68 -80 0
-76 -80 0
-15 -20 0
-15 -25 0
-15 -30 0
-15 -46 0
-15 -54 0
-15 -64 0
-15 -69 0
-15 -72 0
-15 -77 0
-20 -25 0
-20 -30 0
-20 -46 0
-20 -54 0
-20 -64 0
-20 -69 0
-20 -72 0
-20 -77 0
-25 -30 0
-25 -46 0
-25 -54 0
-25 -64 0
-25 -69 0
-25 -72 0
-25 -77 0
-30 -46 0
-30 -54 0
-30 -64 0
-30 -69 0
-30 -72 0
-30 -77 0
-46 -54 0
-46 -64 0
-46 -69 0
-46 -72 0
-46 -77 0
-54 -64 0
-54 -69 0
-54 -72 0
-54 -77 0
-64 -69 0
-64 -72 0
-64 -77 0
-69 -72 0
-69 -77 0
-72 -77 0
-2 -16 0
-2 -26 0
-2 -31 0
-2 -35 0
-2 -38 0
-2 -43 0
-2 -55 0
-2 -65 0
-2 -70 0
-2 -73 0
-16 -26 0
-16 -31 0
-16 -35 0
-16 -38 0
-16 -43 0
-16 -55 0
-16 -65 0
-16 -70 0
-16 -73 0
-26 -31 0
-26 -35 0
-26 -38 0
-26 -43 0
-26 -55 0
-26 -65 0
-26 -70 0
-26 -73 0
-31 -35 0
-31 -38 0
-31 -43 0
-31 -55 0
-31 -65 0
-31 -70 0
-31 -73 0
-35 -38 0
-35 -43 0
-35 -55 0
-35 -65 0
-35 -70 0
-35 -73 0
-38 -43 0
-38 -55 0
-38 -65 0
-38 -70 0
-38 -73 0
-43 -55 0
-43 -65 0
-43 -70 0
-43 -73 0
-55 -65 0
-55 -70 0
-55 -73 0
-65 -70 0
-65 -73 0
-70 -73 0
-9 -11 0
-9 -17 0
-9 -39 0
-9 -58 0
-9 -66 0
-9 -81 0
-11 -17 0
-11 -39 0
-11 -58 0
-11 -66 0
-11 -81 0
-17 -39 0
-17 -58 0
-17 -66 0
-17 -81 0
-39 -58 0
-39 -66 0
-39 -81 0
-58 -66 0
-58 -81 0
-66 -81 0
-3 -5 0
-3 -21 0
-3 -32 0
-3 -40 0
-3 -44 0
-3 -49 0
-3 -59 0
-3 -71 0
-3 -78 0
-3 -82 0
-5 -21 0
-5 -32 0
-5 -40 0
-5 -44 0
-5 -49 0
-5 -59 0
-5 -71 0
-5 -78 0
-5 -82 0
-21 -32 0
-21 -40 0
-21 -44 0
-21 -49 0
-21 -59 0
-21 -71 0
-21 -78 0
-21 -82 0
-32 -40 0
-32 -44 0
-32 -49 0
-32 -59 0
-32 -71 0
-32 -78 0
-32 -82 0
-40 -44 0
-40 -49 0
-40 -59 0
-40 -71 0
-40 -78 0
-40 -82 0
-44 -49 0
-44 -59 0
-44 -71 0
-44 -78 0
-44 -82 0
-49 -59 0
-49 -71 0
-49 -78 0
-49 -82 0
-59 -71 0
-59 -78 0
-59 -82 0
-71 -78 0
-71 -82 0
-78 -82 0
-6 -12 0
-6 -22 0
-6 -50 0
-6 -56 0
-6 -60 0
-6 -74 0
-6 -79 0
-12 -22 0
-12 -50 0
-12 -56 0
-12 -60 0
-12 -74 0
-12 -79 0
-22 -50 0
-22 -56 0
-22 -60 0
-22 -74 0
-22 -79 0
-50 -56 0
-50 -60 0
-50 -74 0
-50 -79 0
-56 -60 0
-56 -74 0
-56 -79 0
-60 -74 0
-60 -79 0
-74 -79 0
